TCS_Benchmarks/redos_fix/corpus1_output_distinct_109_108_8_0.txt
([^\n]*)([^\n]*)
([^\n]*)('.*:creating ')([^\n]*)